(set-info :smt-lib-version 2.6)
(set-logic LRA)
(set-info :source |
   Monniaux, David; Quantifier Elimination by Lazy Model Enumeration, CAV 2010
|)
(set-info :category "random")
; ./Mjollnir_examples/B2/formula_012.m
(set-info :status unsat)
(assert
 (forall ((|v11:0| Real) )(exists ((|v10:1| Real) )(forall ((|v9:2| Real) )(exists ((|v8:3| Real) )(forall ((|v7:4| Real) )(exists ((|v6:5| Real) )(forall ((|v5:6| Real) )(exists ((|v4:7| Real) )(forall ((|v3:8| Real) )(exists ((|v2:9| Real) )(forall ((|v1:10| Real) )(exists ((|v0:11| Real) )(let ((?x10 2))
(let ((?x534 (+ (+ (* 7 |v7:4|) (* (- 7) |v9:2|)) (* (- 5) |v10:1|))))
(let ((?x53 (- 18)))
(let ((?x180 18))
(let ((?x469 (* ?x180 |v4:7|)))
(let ((?x526 (+ (+ (+ (* 4 |v1:10|) (* 11 |v3:8|)) ?x469) (* 13 |v7:4|))))
(let ((?x61 (- 13)))
(let ((?x150 13))
(let ((?x151 (* ?x150 |v9:2|)))
(let ((?x57 (- 19)))
(let ((?x240 (* ?x57 |v9:2|)))
(let ((?x520 (+ (+ (+ (* (- 1) |v10:1|) (* 20 |v7:4|)) ?x240) ?x151)))
(let ((?x155 (- 12)))
(let ((?x512 (+ (+ (* (- 2) |v3:8|) (* 12 |v11:0|)) (* 15 |v2:9|))))
(let ((?x387 4))
(let ((?x103 19))
(let ((?x245 (* ?x103 |v0:11|)))
(let ((?x506 (+ (+ (* 17 |v5:6|) (* 15 |v7:4|)) (* (- 3) |v4:7|))))
(let (($x516 (and (<= (+ ?x506 ?x245) ?x387) (<= (+ ?x512 (* 14 |v9:2|)) ?x155))))
(let (($x538 (or (or $x516 (and (<= ?x520 ?x61) (<= ?x526 ?x53))) (<= (+ ?x534 (* ?x387 |v0:11|)) ?x10))))
(let ((?x64 (- 6)))
(let ((?x496 (+ (+ (* (- 7) |v4:7|) (* (- 10) |v6:5|)) (* ?x155 |v2:9|))))
(let ((?x192 (- 15)))
(let ((?x208 (* ?x192 |v0:11|)))
(let ((?x104 (* ?x103 |v10:1|)))
(let ((?x491 (+ (+ (+ (* 6 |v7:4|) (* 17 |v0:11|)) ?x104) ?x208)))
(let ((?x184 15))
(let ((?x484 (+ (+ (+ (* ?x155 |v4:7|) (* ?x57 |v2:9|)) (* (- 1) |v4:7|)) (* (- 4) |v2:9|))))
(let ((?x49 11))
(let ((?x187 (* ?x49 |v1:10|)))
(let (($x478 (<= (+ (+ (+ (* ?x180 |v10:1|) (* (- 16) |v11:0|)) ?x187) ?x245) ?x192)))
(let (($x500 (or (and $x478 (<= ?x484 ?x184)) (or (<= ?x491 ?x155) (<= (+ ?x496 |v1:10|) ?x64)))))
(let ((?x122 5))
(let ((?x468 (+ (+ (* ?x61 |v2:9|) (* (- 17) |v8:3|)) (* (- 11) |v7:4|))))
(let ((?x112 20))
(let ((?x461 (+ (+ (* 16 |v8:3|) (* 8 |v8:3|)) (* (- 2) |v10:1|))))
(let (($x472 (or (<= (+ ?x461 (* (- 10) |v4:7|)) ?x112) (<= (+ ?x468 ?x469) ?x122))))
(let ((?x41 14))
(let ((?x168 (* ?x10 |v1:10|)))
(let (($x456 (<= (+ (+ (+ ?x240 (* ?x103 |v2:9|)) (* 8 |v7:4|)) ?x168) ?x41)))
(let ((?x447 (+ (+ (* ?x10 |v6:5|) (* (- 9) |v0:11|)) (* (- 10) |v9:2|))))
(let (($x501 (or (or (and (<= (+ ?x447 (* (- 4) |v4:7|)) ?x57) $x456) $x472) $x500)))
(let ((?x437 (+ (+ (* (- 4) |v9:2|) (* ?x49 |v9:2|)) (* (- 1) |v2:9|))))
(let ((?x216 0))
(let ((?x431 (+ (+ (+ (* 17 |v2:9|) (* ?x192 |v3:8|)) (* ?x49 |v11:0|)) (* (- 7) |v1:10|))))
(let ((?x14 (- 11)))
(let ((?x181 (* ?x180 |v11:0|)))
(let ((?x422 (+ (+ (+ (* ?x155 |v5:6|) (* ?x61 |v5:6|)) (* (- 4) |v3:8|)) ?x181)))
(let ((?x308 17))
(let ((?x413 (+ (+ (* ?x64 |v10:1|) (* 7 |v10:1|)) (* (- 10) |v7:4|))))
(let (($x442 (and (and (<= (+ ?x413 (* 3 |v8:3|)) ?x308) (<= ?x422 ?x14)) (and (<= ?x431 ?x216) (<= (+ ?x437 (* ?x103 |v7:4|)) ?x61)))))
(let ((?x406 (+ (+ (+ (* ?x57 |v11:0|) (* (- 1) |v1:10|)) (* ?x57 |v1:10|)) (* 8 |v1:10|))))
(let ((?x18 (- 2)))
(let ((?x201 (- 17)))
(let ((?x202 (* ?x201 |v4:7|)))
(let ((?x398 (+ (+ (+ (* (- 3) |v9:2|) (* ?x387 |v4:7|)) ?x202) (* ?x150 |v1:10|))))
(let ((?x391 (+ (+ (+ (* 6 |v2:9|) (* ?x14 |v1:10|)) (* ?x387 |v6:5|)) (* ?x155 |v0:11|))))
(let (($x443 (and (or (or (<= ?x391 9) (<= ?x398 ?x18)) (<= ?x406 ?x184)) $x442)))
(let ((?x117 6))
(let ((?x135 (* ?x117 |v8:3|)))
(let ((?x377 (+ (+ (* (- 3) |v6:5|) (* (- 1) |v1:10|)) (* 12 |v2:9|))))
(let ((?x23 (- 10)))
(let ((?x370 (+ (+ (* (- 4) |v1:10|) (* ?x117 |v6:5|)) (* (- 8) |v4:7|))))
(let ((?x365 (+ (+ (+ (* ?x122 |v10:1|) (* ?x216 |v2:9|)) (* ?x117 |v4:7|)) (* 16 |v5:6|))))
(let (($x381 (and (<= ?x365 ?x18) (and (<= (+ ?x370 (* ?x308 |v3:8|)) ?x23) (<= (+ ?x377 ?x135) ?x308)))))
(let ((?x174 10))
(let ((?x217 (* ?x216 |v6:5|)))
(let ((?x356 (+ (+ (+ (* ?x174 |v6:5|) (* (- 16) |v11:0|)) (* ?x10 |v5:6|)) ?x217)))
(let ((?x349 (+ (+ (+ (* ?x150 |v3:8|) (* (- 5) |v4:7|)) (* ?x180 |v1:10|)) (* ?x201 |v3:8|))))
(let ((?x340 (* ?x117 |v4:7|)))
(let ((?x341 (+ (+ (+ (* ?x155 |v1:10|) (* ?x61 |v2:9|)) (* (- 7) |v10:1|)) ?x340)))
(let ((?x333 (+ (+ (+ (* ?x61 |v4:7|) (* (- 20) |v6:5|)) (* ?x174 |v7:4|)) (* ?x155 |v6:5|))))
(let (($x359 (and (and (<= ?x333 ?x53) (<= ?x341 ?x112)) (and (<= ?x349 ?x155) (<= ?x356 ?x174)))))
(let ((?x138 (- 14)))
(let ((?x321 (+ (+ (+ (* ?x180 |v7:4|) (* ?x41 |v10:1|)) (* (- 3) |v1:10|)) (* ?x216 |v7:4|))))
(let ((?x89 12))
(let ((?x313 (+ (+ (+ (* (- 5) |v8:3|) (* ?x308 |v1:10|)) ?x135) (* ?x14 |v10:1|))))
(let ((?x99 8))
(let ((?x302 (* ?x99 |v8:3|)))
(let (($x304 (<= (+ (+ (+ (* ?x216 |v10:1|) (* ?x57 |v6:5|)) (* ?x18 |v3:8|)) ?x302) ?x41)))
(let ((?x294 (+ (+ (* 9 |v7:4|) (* (- 9) |v0:11|)) (* (- 7) |v8:3|))))
(let (($x324 (or (and (<= (+ ?x294 (* ?x201 |v7:4|)) ?x99) $x304) (or (<= ?x313 ?x89) (<= ?x321 ?x138)))))
(let ((?x286 (+ (+ (+ (* ?x18 |v9:2|) (* (- 7) |v11:0|)) ?x202) (* ?x10 |v3:8|))))
(let ((?x30 16))
(let ((?x275 (* ?x10 |v6:5|)))
(let (($x277 (<= (+ (+ (+ (* (- 7) |v6:5|) ?x135) (* ?x180 |v8:3|)) ?x275) ?x30)))
(let ((?x146 (- 4)))
(let ((?x147 (* ?x146 |v0:11|)))
(let (($x270 (<= (+ (+ (+ (* ?x150 |v0:11|) (* ?x23 |v6:5|)) (* ?x180 |v1:10|)) ?x147) (- 9))))
(let ((?x260 (+ (+ (+ (* ?x112 |v4:7|) (* ?x122 |v4:7|)) (* ?x49 |v3:8|)) (* ?x53 |v1:10|))))
(let (($x253 (<= (+ (+ (+ (* ?x30 |v4:7|) (* ?x174 |v11:0|)) (* ?x49 |v8:3|)) ?x187) ?x146)))
(let (($x247 (<= (+ (+ (+ ?x240 (* ?x138 |v4:7|)) (* (- 7) |v2:9|)) ?x245) ?x89)))
(let ((?x238 (- 7)))
(let (($x239 (<= (+ (+ (+ (* ?x112 |v7:4|) (* ?x89 |v3:8|)) ?x135) (* ?x10 |v8:3|)) ?x238)))
(let (($x230 (<= (+ (+ (+ (* ?x174 |v1:10|) (* ?x89 |v6:5|)) |v8:3|) (* ?x89 |v6:5|)) ?x138)))
(let (($x224 (<= (+ (+ (+ ?x217 (* ?x192 |v8:3|)) (* ?x180 |v2:9|)) (* ?x174 |v11:0|)) ?x41)))
(let (($x280 (or (and (or $x224 $x230) (and $x239 $x247)) (or (and $x253 (<= ?x260 ?x10)) (or $x270 $x277)))))
(let (($x210 (<= (+ (+ (+ ?x202 (* ?x89 |v1:10|)) (* (- 20) |v0:11|)) ?x208) ?x10)))
(let ((?x198 (+ (+ (+ (* (- 1) |v8:3|) (* ?x192 |v6:5|)) (* ?x23 |v6:5|)) (* ?x14 |v11:0|))))
(let ((?x26 (- 16)))
(let (($x189 (<= (+ (+ (+ (* (- 3) |v11:0|) ?x181) (* ?x184 |v4:7|)) ?x187) ?x26)))
(let ((?x162 (+ (+ (* (- 8) |v9:2|) (* 7 |v1:10|)) (* (- 1) |v0:11|))))
(let (($x176 (and (<= (+ ?x162 (* ?x122 |v6:5|)) 1) (<= (+ (+ (+ ?x168 (* ?x155 |v4:7|)) (* ?x117 |v6:5|)) |v7:4|) ?x174))))
(let (($x157 (and (<= (+ (+ (+ ?x135 |v3:8|) (* ?x138 |v7:4|)) (* ?x26 |v3:8|)) ?x57) (<= (+ (+ (+ ?x147 (* ?x117 |v9:2|)) ?x151) (* ?x112 |v5:6|)) ?x155))))
(let ((?x126 (- 5)))
(let ((?x127 (* ?x126 |v2:9|)))
(let (($x131 (<= (+ (+ (+ (* ?x112 |v8:3|) ?x127) (* (- 1) |v1:10|)) ?x127) ?x126)))
(let ((?x121 (+ (+ (+ (* ?x112 |v7:4|) (* (- 3) |v3:8|)) (* ?x117 |v9:2|)) (* ?x41 |v1:10|))))
(let ((?x107 (+ (+ (+ (* 7 |v5:6|) (* ?x99 |v3:8|)) ?x104) (* ?x57 |v8:3|))))
(let ((?x94 (+ (+ (+ (* ?x23 |v2:9|) (* 7 |v0:11|)) (* ?x89 |v1:10|)) (* ?x89 |v10:1|))))
(let ((?x79 (* (- 8) |v9:2|)))
(let ((?x50 (* ?x49 |v8:3|)))
(let ((?x80 (+ (+ (+ (* (- 1) |v1:10|) (* 3 |v11:0|)) ?x50) ?x79)))
(let (($x65 (<= (+ (+ (+ ?x50 (* ?x53 |v6:5|)) (* ?x57 |v7:4|)) (* ?x61 |v4:7|)) ?x64)))
(let ((?x44 7))
(let ((?x43 (+ (+ (+ (* ?x30 |v4:7|) (* (- 3) |v8:3|)) (* ?x18 |v3:8|)) (* ?x41 |v0:11|))))
(let ((?x25 (+ (+ (+ (* ?x10 |v7:4|) (* ?x14 |v4:7|)) (* ?x18 |v7:4|)) (* ?x23 |v3:8|))))
(let (($x134 (or (or (and (<= ?x25 ?x26) (<= ?x43 ?x44)) (or $x65 (<= ?x80 ?x53))) (or (or (<= ?x94 ?x57) (<= ?x107 ?x57)) (or (<= ?x121 ?x122) $x131)))))
(let (($x327 (or (or $x134 (or (or $x157 $x176) (or $x189 (or (<= ?x198 ?x180) $x210)))) (or $x280 (or (<= ?x286 ?x41) $x324)))))
(and $x327 (and (and (and $x359 $x381) $x443) (or $x501 $x538)))))))))))))))))))))))))))))))))))))))))))))))))))))))))))))))))))))))))))))))))))))))))))))))))))))))))))))))))))))))))))
)
)
)
)
)
)
)
)
)
)
)
)
(check-sat)
(exit)

